c "671155.clq"
p edge 150 584
e 1 5
e 1 6
e 1 7
e 1 8
e 1 10
e 1 12
e 1 15
e 1 16
e 1 19
e 1 22
e 1 23
e 1 26
e 1 38
e 1 46
e 1 63
e 1 69
e 1 97
e 1 99
e 1 117
e 1 146
e 2 5
e 2 6
e 3 5
e 3 6
e 3 7
e 3 9
e 3 10
e 3 11
e 3 15
e 3 19
e 3 25
e 3 28
e 3 35
e 3 41
e 3 43
e 3 44
e 3 52
e 3 59
e 3 60
e 3 66
e 3 78
e 4 5
e 4 8
e 4 15
e 5 6
e 5 7
e 5 8
e 5 9
e 5 10
e 5 11
e 5 13
e 5 16
e 5 17
e 5 18
e 5 21
e 5 24
e 5 28
e 5 29
e 5 30
e 5 32
e 5 33
e 5 34
e 5 35
e 5 36
e 5 37
e 5 45
e 5 51
e 5 52
e 5 53
e 5 54
e 5 55
e 5 57
e 5 58
e 5 62
e 5 68
e 5 70
e 5 77
e 5 82
e 5 97
e 5 98
e 5 100
e 5 104
e 5 105
e 5 113
e 5 114
e 5 116
e 5 120
e 5 129
e 5 134
e 5 143
e 6 7
e 6 8
e 6 9
e 6 11
e 6 13
e 6 14
e 6 15
e 6 17
e 6 20
e 6 22
e 6 23
e 6 24
e 6 25
e 6 27
e 6 39
e 6 40
e 6 41
e 6 42
e 6 43
e 6 44
e 6 47
e 6 48
e 6 50
e 6 57
e 6 62
e 6 64
e 6 68
e 6 72
e 6 84
e 6 85
e 6 101
e 6 102
e 6 103
e 6 115
e 6 119
e 6 127
e 6 136
e 6 138
e 6 145
e 6 148
e 6 149
e 7 9
e 7 12
e 7 14
e 7 19
e 7 20
e 7 21
e 7 22
e 7 25
e 7 26
e 7 27
e 7 33
e 7 40
e 7 44
e 7 50
e 7 56
e 7 58
e 7 61
e 7 68
e 7 71
e 7 73
e 7 74
e 7 76
e 7 87
e 7 89
e 7 104
e 7 105
e 7 107
e 7 118
e 7 133
e 7 143
e 8 10
e 8 11
e 8 12
e 8 13
e 8 14
e 8 17
e 8 19
e 8 26
e 8 29
e 8 30
e 8 32
e 8 45
e 8 46
e 8 47
e 8 51
e 8 55
e 8 64
e 8 69
e 8 74
e 8 88
e 8 97
e 8 113
e 8 119
e 8 124
e 8 135
e 8 139
e 8 146
e 8 150
e 9 12
e 9 20
e 9 23
e 9 24
e 9 25
e 9 28
e 9 32
e 9 36
e 9 41
e 9 47
e 9 53
e 9 63
e 9 69
e 9 76
e 9 83
e 9 86
e 9 92
e 9 95
e 9 111
e 9 119
e 9 136
e 10 13
e 10 29
e 10 31
e 10 42
e 10 45
e 10 49
e 10 61
e 10 87
e 10 91
e 10 94
e 10 108
e 10 113
e 10 114
e 10 137
e 10 150
e 11 14
e 11 17
e 11 18
e 11 30
e 11 31
e 11 34
e 11 50
e 11 52
e 11 53
e 11 56
e 11 59
e 11 64
e 11 67
e 11 79
e 11 82
e 11 89
e 11 103
e 11 111
e 11 114
e 11 129
e 11 130
e 11 139
e 11 149
e 12 18
e 12 21
e 12 39
e 12 56
e 12 65
e 12 69
e 12 71
e 12 79
e 12 89
e 12 99
e 12 100
e 12 123
e 12 125
e 12 140
e 12 148
e 13 31
e 13 36
e 13 49
e 13 72
e 13 82
e 13 98
e 13 120
e 14 16
e 14 22
e 14 37
e 14 74
e 14 80
e 14 93
e 14 94
e 14 115
e 14 124
e 14 134
e 15 16
e 15 18
e 15 42
e 15 57
e 15 93
e 15 112
e 15 137
e 16 37
e 16 48
e 16 54
e 16 63
e 16 73
e 16 75
e 16 78
e 16 127
e 16 129
e 16 137
e 16 138
e 16 141
e 16 143
e 16 146
e 17 24
e 17 60
e 17 66
e 17 91
e 17 122
e 18 27
e 18 28
e 18 29
e 18 33
e 18 43
e 18 53
e 18 65
e 18 90
e 18 105
e 18 135
e 18 141
e 18 142
e 18 145
e 19 20
e 19 21
e 19 23
e 19 26
e 19 30
e 19 38
e 19 40
e 19 45
e 19 55
e 19 62
e 19 96
e 19 110
e 19 120
e 19 125
e 19 126
e 19 130
e 19 142
e 20 42
e 20 44
e 20 47
e 20 48
e 20 52
e 20 59
e 20 71
e 20 80
e 20 82
e 20 93
e 20 122
e 20 131
e 20 133
e 21 60
e 21 65
e 21 70
e 22 34
e 22 59
e 22 61
e 22 81
e 22 86
e 22 92
e 22 100
e 22 102
e 22 104
e 23 32
e 23 51
e 23 66
e 24 67
e 24 128
e 24 131
e 24 138
e 25 35
e 25 36
e 25 50
e 25 61
e 25 75
e 25 77
e 25 109
e 25 110
e 25 124
e 25 127
e 25 131
e 25 139
e 26 27
e 26 131
e 26 133
e 27 37
e 27 56
e 27 91
e 27 135
e 28 33
e 28 38
e 28 39
e 28 79
e 28 108
e 29 34
e 29 41
e 29 49
e 29 66
e 29 68
e 29 83
e 29 97
e 29 116
e 30 31
e 31 65
e 31 75
e 31 93
e 31 94
e 31 136
e 31 138
e 31 149
e 32 38
e 32 40
e 32 85
e 33 39
e 33 55
e 33 63
e 34 35
e 34 86
e 34 98
e 34 122
e 35 58
e 35 81
e 35 83
e 35 102
e 35 122
e 36 96
e 36 118
e 37 64
e 37 70
e 37 126
e 38 141
e 38 144
e 39 46
e 39 51
e 39 62
e 39 103
e 40 73
e 40 85
e 40 107
e 40 132
e 41 43
e 41 49
e 41 57
e 42 46
e 42 48
e 44 60
e 44 67
e 44 128
e 44 145
e 45 58
e 45 71
e 45 73
e 45 76
e 45 80
e 45 86
e 45 99
e 45 130
e 46 67
e 46 80
e 47 114
e 48 100
e 48 109
e 48 117
e 48 126
e 48 132
e 48 140
e 49 54
e 49 84
e 49 88
e 49 95
e 50 81
e 51 54
e 52 83
e 52 113
e 53 78
e 53 111
e 53 133
e 54 90
e 54 92
e 55 134
e 56 98
e 56 117
e 56 121
e 56 147
e 56 148
e 57 106
e 57 121
e 58 126
e 59 78
e 59 79
e 59 99
e 59 107
e 59 108
e 60 101
e 60 109
e 60 140
e 61 85
e 62 94
e 62 142
e 62 146
e 63 72
e 63 84
e 64 84
e 64 92
e 64 116
e 64 142
e 65 87
e 65 89
e 66 95
e 66 96
e 66 106
e 66 144
e 66 147
e 67 75
e 67 106
e 68 70
e 68 72
e 68 74
e 68 88
e 68 101
e 68 102
e 68 111
e 68 120
e 70 90
e 71 141
e 72 106
e 73 77
e 73 81
e 73 105
e 73 128
e 73 144
e 74 87
e 74 110
e 74 118
e 74 134
e 74 135
e 75 76
e 75 96
e 75 101
e 75 116
e 76 77
e 76 127
e 78 103
e 78 121
e 79 88
e 79 118
e 79 150
e 80 115
e 80 149
e 82 90
e 82 107
e 82 115
e 82 150
e 84 91
e 84 95
e 85 112
e 86 108
e 87 125
e 89 129
e 89 144
e 90 123
e 90 128
e 93 104
e 94 117
e 94 119
e 95 125
e 96 109
e 96 110
e 99 123
e 99 132
e 106 112
e 106 148
e 107 112
e 108 123
e 112 140
e 114 137
e 117 121
e 117 132
e 120 124
e 126 130
e 129 145
e 131 136
e 133 139
e 137 147
e 138 143
e 142 147
